Problem:    PLI_Containers
Rows:       24
Columns:    64 (64 integer, 64 binary)
Non-zeros:  192
Status:     INTEGER OPTIMAL
Objective:  utilizzo = 4 (MINimum)

   No.   Row name        Activity     Lower bound   Upper bound
------ ------------    ------------- ------------- -------------
     1 peso[1]                   -21                          -0 
     2 peso[2]                    -3                          -0 
     3 peso[3]                    -1                          -0 
     4 peso[4]                    -5                          -0 
     5 oggetti[1]                  1             1               
     6 oggetti[2]                  1             1               
     7 oggetti[3]                  1             1               
     8 oggetti[4]                  1             1               
     9 oggetti[5]                  1             1               
    10 oggetti[6]                  1             1               
    11 oggetti[7]                  1             1               
    12 oggetti[8]                  2             1               
    13 oggetti[9]                  1             1               
    14 oggetti[10]                 1             1               
    15 oggetti[11]                 4             1               
    16 oggetti[12]                 2             1               
    17 oggetti[13]                 1             1               
    18 oggetti[14]                 1             1               
    19 oggetti[15]                 1             1               
    20 volume[1]                   0            -0             = 
    21 volume[2]                   0            -0             = 
    22 volume[3]                   0            -0             = 
    23 volume[4]                   0            -0             = 
    24 utilizzo                    4                             

   No. Column name       Activity     Lower bound   Upper bound
------ ------------    ------------- ------------- -------------
     1 x[1,1]       *              0             0             1 
     2 x[2,1]       *              0             0             1 
     3 x[3,1]       *              0             0             1 
     4 x[4,1]       *              1             0             1 
     5 x[5,1]       *              0             0             1 
     6 x[6,1]       *              0             0             1 
     7 x[7,1]       *              0             0             1 
     8 x[8,1]       *              1             0             1 
     9 x[9,1]       *              1             0             1 
    10 x[10,1]      *              0             0             1 
    11 x[11,1]      *              1             0             1 
    12 x[12,1]      *              0             0             1 
    13 x[13,1]      *              0             0             1 
    14 x[14,1]      *              0             0             1 
    15 x[15,1]      *              1             0             1 
    16 x[1,2]       *              0             0             1 
    17 x[2,2]       *              0             0             1 
    18 x[3,2]       *              1             0             1 
    19 x[4,2]       *              0             0             1 
    20 x[5,2]       *              0             0             1 
    21 x[6,2]       *              1             0             1 
    22 x[7,2]       *              0             0             1 
    23 x[8,2]       *              1             0             1 
    24 x[9,2]       *              0             0             1 
    25 x[10,2]      *              1             0             1 
    26 x[11,2]      *              1             0             1 
    27 x[12,2]      *              0             0             1 
    28 x[13,2]      *              0             0             1 
    29 x[14,2]      *              0             0             1 
    30 x[15,2]      *              0             0             1 
    31 x[1,3]       *              1             0             1 
    32 x[2,3]       *              1             0             1 
    33 x[3,3]       *              0             0             1 
    34 x[4,3]       *              0             0             1 
    35 x[5,3]       *              0             0             1 
    36 x[6,3]       *              0             0             1 
    37 x[7,3]       *              0             0             1 
    38 x[8,3]       *              0             0             1 
    39 x[9,3]       *              0             0             1 
    40 x[10,3]      *              0             0             1 
    41 x[11,3]      *              1             0             1 
    42 x[12,3]      *              1             0             1 
    43 x[13,3]      *              0             0             1 
    44 x[14,3]      *              1             0             1 
    45 x[15,3]      *              0             0             1 
    46 x[1,4]       *              0             0             1 
    47 x[2,4]       *              0             0             1 
    48 x[3,4]       *              0             0             1 
    49 x[4,4]       *              0             0             1 
    50 x[5,4]       *              1             0             1 
    51 x[6,4]       *              0             0             1 
    52 x[7,4]       *              1             0             1 
    53 x[8,4]       *              0             0             1 
    54 x[9,4]       *              0             0             1 
    55 x[10,4]      *              0             0             1 
    56 x[11,4]      *              1             0             1 
    57 x[12,4]      *              1             0             1 
    58 x[13,4]      *              1             0             1 
    59 x[14,4]      *              0             0             1 
    60 x[15,4]      *              0             0             1 
    61 cont[1]      *              1             0             1 
    62 cont[2]      *              1             0             1 
    63 cont[3]      *              1             0             1 
    64 cont[4]      *              1             0             1 

Integer feasibility conditions:

KKT.PE: max.abs.err = 0.00e+000 on row 0
        max.rel.err = 0.00e+000 on row 0
        High quality

KKT.PB: max.abs.err = 0.00e+000 on row 0
        max.rel.err = 0.00e+000 on row 0
        High quality

End of output
